0 43 65
1 56 70
2 2 73
3 62 77
4 65 73
5 69 71
6 68 70
7 68 70
8 1 70
9 67 70
10 57 69
11 42 67
12 55 64
13 47 62
14 55 60
15 57 60
16 60 60
17 56 59
18 57 57
19 49 57
20 54 57
21 44 57
22 45 58
23 55 57
24 48 55
25 46 54
26 50 52
27 39 49
28 44 47
29 33 45
30 45 45
31 25 44
32 24 43
33 4 40
34 34 39
35 33 36
36 24 34
37 29 32
38 27 30
39 25 29
40 26 30
41 28 30
42 19 29
43 27 28
44 27 27
45 20 28
46 24 25
47 23 23
48 7 24
49 20 23
50 10 22
51 20 21
52 15 19
53 14 17
54 6 17
55 13 15
56 3 14
57 10 12
58 11 11
59 6 10
60 10 10
61 9 9
62 6 8
63 6 8
64 6 8
65 6 8
66 5 7
67 5 8
68 4 7
69 4 7
70 4 5
71 2 4
72 2 3
73 3 5
74 4 4
75 4 4
76 3 3
77 1 2
78 2 2
79 1 1
80 1 1

